\ENCODING=ISO-8859-1
\Problem name: IloCplex

Minimize
 obj1: x_a_0 + x_a_1 + x_a_2 + 2 x_a_3 + x_a_4 + x_a_5 + x_a_6 + 2 x_a_7
       + 3 x_a_8 + x_a_9 + 2 x_a_10 + 3 x_a_11 + 2 x_a_12 + x_a_13 + x_a_14
       + 2 x_a_15 + 2 x_a_16 + 3 x_a_17 + x_a_18 + x_a_19 + 3 x_a_20 + x_a_21
       + 2 x_a_22 + x_a_23 + 2 x_a_24 + 2 x_a_25 + 2 x_a_26 + 2 x_a_27
       + 2 x_a_28 + 3 x_a_29 + x_a_30 + 3 x_a_31 + 2 x_a_32 + 3 x_a_33
       + 2 x_a_34 + 1000000000 x_a_35 + 1000000000 x_a_36 + 1000000000 x_a_37
       + 1000000000 x_a_38 + 1000000000 x_a_39 + 1000000000 x_a_40
       + 1000000000 x_a_41 + 1000000000 x_a_42 + 10000 x_a_43
Subject To
 c1:  y_a_35 + y_a_36 + y_a_37 + y_a_38 <= 28.8
 c2:  y_a_0 + y_a_1 + y_a_2  = 0
 c3:  - y_a_0 + y_a_3 + y_a_4 + y_a_5 + y_a_6 + y_a_7  = 0
 c4:  - y_a_3 + y_a_8 + y_a_9 + y_a_10 + y_a_11 + y_a_12  = 0
 c5:  - y_a_1 - y_a_4 - y_a_8 + y_a_13 + y_a_14 + y_a_15  = 0
 c6:  - y_a_13 + y_a_16 + y_a_17 + y_a_18 + y_a_19  = 0
 c7:  - y_a_38 - y_a_5 + y_a_20 + y_a_21 + y_a_22 + y_a_23  = 0
 c8:  - y_a_37 - y_a_9 - y_a_16 + y_a_24 + y_a_25  = 0
 c9:  - y_a_36 - y_a_6 - y_a_10 + y_a_26 + y_a_27 + y_a_28 + y_a_29  = 0
 c10: - y_a_2 - y_a_14 - y_a_26  = 0
 c11: - y_a_11 - y_a_17  = 0
 c12: - y_a_12 + y_a_30 + y_a_31 + y_a_42  = 0
 c13: - y_a_24 - y_a_30 + y_a_32 + y_a_33 + y_a_40  = 0
 c14: - y_a_15 - y_a_20 + y_a_34 + y_a_39  = 0
 c15: - y_a_7  = 0
 c16: - y_a_27 - y_a_31 - y_a_34  = 0
 c17: - y_a_18 - y_a_21 - y_a_32  = 0
 c18: - y_a_22 - y_a_25 - y_a_28  = 0
 c19: - y_a_19 - y_a_23 - y_a_29 - y_a_33 + y_a_41  = 0
 c20: y_a_36 + y_a_37 + y_a_38 - y_a_43  = 0
 c21: - y_a_42 - y_a_40 - y_a_39 - y_a_41 + y_a_43  = 0
 c22: y_a_0 + 24 x_a_0 <= 24
 c23: y_a_1 + 49 x_a_1 <= 49
 c24: y_a_2 + 41 x_a_2 <= 41
 c25: y_a_3 + 44 x_a_3 <= 44
 c26: y_a_4 + 23 x_a_4 <= 23
 c27: y_a_5 + 49 x_a_5 <= 49
 c28: y_a_6 + 17 x_a_6 <= 17
 c29: y_a_7 + 48 x_a_7 <= 48
 c30: y_a_8 + 5 x_a_8 <= 5
 c31: y_a_9 + 40 x_a_9 <= 40
 c32: y_a_10 + 20 x_a_10 <= 20
 c33: y_a_11 + 17 x_a_11 <= 17
 c34: y_a_12 + 30 x_a_12 <= 30
 c35: y_a_13 + 14 x_a_13 <= 14
 c36: y_a_14 + 19 x_a_14 <= 19
 c37: y_a_15 + 37 x_a_15 <= 37
 c38: y_a_16 + 37 x_a_16 <= 37
 c39: y_a_17 + 34 x_a_17 <= 34
 c40: y_a_18 + 15 x_a_18 <= 15
 c41: y_a_19 + 18 x_a_19 <= 18
 c42: y_a_20 + 36 x_a_20 <= 36
 c43: y_a_21 + 30 x_a_21 <= 30
 c44: y_a_22 + 44 x_a_22 <= 44
 c45: y_a_23 + 44 x_a_23 <= 44
 c46: y_a_24 + 23 x_a_24 <= 23
 c47: y_a_25 + x_a_25 <= 1
 c48: y_a_26 + 15 x_a_26 <= 15
 c49: y_a_27 + x_a_27 <= 1
 c50: y_a_28 + 40 x_a_28 <= 40
 c51: y_a_29 + 41 x_a_29 <= 41
 c52: y_a_30 + 38 x_a_30 <= 38
 c53: y_a_31 + 48 x_a_31 <= 48
 c54: y_a_32 + 36 x_a_32 <= 36
 c55: y_a_33 + 42 x_a_33 <= 42
 c56: y_a_34 + 28 x_a_34 <= 28
 c57: y_a_35 + 50000000 x_a_35 <= 50000000
 c58: y_a_36 + 50000000 x_a_36 <= 50000000
 c59: y_a_37 + 50000000 x_a_37 <= 50000000
 c60: y_a_38 + 50000000 x_a_38 <= 50000000
 c61: y_a_39 + 50000000 x_a_39 <= 50000000
 c62: y_a_40 + 50000000 x_a_40 <= 50000000
 c63: y_a_41 + 50000000 x_a_41 <= 50000000
 c64: y_a_42 + 50000000 x_a_42 <= 50000000
 c65: y_a_43 + 10000 x_a_43 <= 10000
Bounds
 0 <= y_a_35 <= 50000000
 0 <= y_a_36 <= 50000000
 0 <= y_a_37 <= 50000000
 0 <= y_a_38 <= 50000000
 0 <= y_a_0 <= 24
 0 <= y_a_1 <= 49
 0 <= y_a_2 <= 41
 0 <= y_a_3 <= 44
 0 <= y_a_4 <= 23
 0 <= y_a_5 <= 49
 0 <= y_a_6 <= 17
 0 <= y_a_7 <= 48
 0 <= y_a_8 <= 5
 0 <= y_a_9 <= 40
 0 <= y_a_10 <= 20
 0 <= y_a_11 <= 17
 0 <= y_a_12 <= 30
 0 <= y_a_13 <= 14
 0 <= y_a_14 <= 19
 0 <= y_a_15 <= 37
 0 <= y_a_16 <= 37
 0 <= y_a_17 <= 34
 0 <= y_a_18 <= 15
 0 <= y_a_19 <= 18
 0 <= y_a_20 <= 36
 0 <= y_a_21 <= 30
 0 <= y_a_22 <= 44
 0 <= y_a_23 <= 44
 0 <= y_a_24 <= 23
 0 <= y_a_25 <= 1
 0 <= y_a_26 <= 15
 0 <= y_a_27 <= 1
 0 <= y_a_28 <= 40
 0 <= y_a_29 <= 41
 0 <= y_a_30 <= 38
 0 <= y_a_31 <= 48
 0 <= y_a_42 <= 50000000
 0 <= y_a_32 <= 36
 0 <= y_a_33 <= 42
 0 <= y_a_40 <= 50000000
 0 <= y_a_34 <= 28
 0 <= y_a_39 <= 50000000
 0 <= y_a_41 <= 50000000
 0 <= y_a_43 <= 10000
 0 <= x_a_0 <= 1
 0 <= x_a_1 <= 1
 0 <= x_a_2 <= 1
 0 <= x_a_3 <= 1
 0 <= x_a_4 <= 1
 0 <= x_a_5 <= 1
 0 <= x_a_6 <= 1
 0 <= x_a_7 <= 1
 0 <= x_a_8 <= 1
 0 <= x_a_9 <= 1
 0 <= x_a_10 <= 1
 0 <= x_a_11 <= 1
 0 <= x_a_12 <= 1
 0 <= x_a_13 <= 1
 0 <= x_a_14 <= 1
 0 <= x_a_15 <= 1
 0 <= x_a_16 <= 1
 0 <= x_a_17 <= 1
 0 <= x_a_18 <= 1
 0 <= x_a_19 <= 1
 0 <= x_a_20 <= 1
 0 <= x_a_21 <= 1
 0 <= x_a_22 <= 1
 0 <= x_a_23 <= 1
 0 <= x_a_24 <= 1
 0 <= x_a_25 <= 1
 0 <= x_a_26 <= 1
 0 <= x_a_27 <= 1
 0 <= x_a_28 <= 1
 0 <= x_a_29 <= 1
 0 <= x_a_30 <= 1
 0 <= x_a_31 <= 1
 0 <= x_a_32 <= 1
 0 <= x_a_33 <= 1
 0 <= x_a_34 <= 1
 0 <= x_a_35 <= 1
 0 <= x_a_36 <= 1
 0 <= x_a_37 <= 1
 0 <= x_a_38 <= 1
 0 <= x_a_39 <= 1
 0 <= x_a_40 <= 1
 0 <= x_a_41 <= 1
 0 <= x_a_42 <= 1
 0 <= x_a_43 <= 1
Binaries
 y_a_25  y_a_27  x_a_0  x_a_1  x_a_2  x_a_3  x_a_4  x_a_5  x_a_6  x_a_7  x_a_8 
 x_a_9  x_a_10  x_a_11  x_a_12  x_a_13  x_a_14  x_a_15  x_a_16  x_a_17  x_a_18 
 x_a_19  x_a_20  x_a_21  x_a_22  x_a_23  x_a_24  x_a_25  x_a_26  x_a_27 
 x_a_28  x_a_29  x_a_30  x_a_31  x_a_32  x_a_33  x_a_34  x_a_35  x_a_36 
 x_a_37  x_a_38  x_a_39  x_a_40  x_a_41  x_a_42  x_a_43 
Generals
 y_a_35  y_a_36  y_a_37  y_a_38  y_a_0  y_a_1  y_a_2  y_a_3  y_a_4  y_a_5 
 y_a_6  y_a_7  y_a_8  y_a_9  y_a_10  y_a_11  y_a_12  y_a_13  y_a_14  y_a_15 
 y_a_16  y_a_17  y_a_18  y_a_19  y_a_20  y_a_21  y_a_22  y_a_23  y_a_24 
 y_a_26  y_a_28  y_a_29  y_a_30  y_a_31  y_a_42  y_a_32  y_a_33  y_a_40 
 y_a_34  y_a_39  y_a_41  y_a_43 
End
